COMUNI = {
	foligno,
	gualdo_tardino,
	gubbio,
	amelia,
	orvieto,
	castiglione_del_lago,
	san_giustino,
	umbertide,
};

NUMERO_COMUNI = 8;

ABITANTI_PER_COMUNE = [55, 14, 30, 11, 19, 15, 11, 16];

STRADE_TRA_COMUNI = [|
	false, false, false, false, false, false, false, false |
	false, false, true, false, false, false, false, false |
	false, true, false, false, false, false, false, true |
	false, false, false, false, false, false, false, false |
	false, false, false, false, false, false, false, false |
	false, false, false, false, false, false, false, false |
	false, false, false, false, false, false, false, false |
	false, false, true, false, false, false, false, false |
|];

RICHIESTE = [|
	9, 5, 36, 11, 14 |
	56, 24, 5, 45, 16 |
	23, 6, 10, 19, 83 |
	12, 36, 6, 29, 25 |
	95, 3, 13, 28, 30 |
	33, 35, 16, 8, 12 |
	4, 72, 8, 7, 63 |
	6, 3, 32, 32, 10 |
|];
